
%FILE DATA:	Soccer Computational Problem for MiniZinc Models	%
%AUTHOR:	Jack Wall	%
%CONTACT:  	116397063@umail.ucc.ie			%
%LAST UPDATE:	03/19/2020, 13:39:23						%
%DESCRIPTION: 	165 games played with 45 games left				%


n=15; %number of teams

%Games to play
games=[|14,2|11,9|15,13|5,10|14,3|10,11|2,4|10,9|8,6|1,5|3,9|12,13|7,4|10,6|9,6|1,11|2,11|4,9|3,2|4,15|5,11|13,7|3,7|9,10|12,3|1,9|13,3|8,7|4,11|11,7|5,2|8,3|3,4|2,12|8,1|7,9|15,9|8,4|9,1|2,3|10,13|3,11|12,10|14,9|6,2|];

%Initial points
iPoints=[28,24,30,28,29,39,31,27,20,28,20,31,46,35,36];

%POSITION CONSTRAINTS
% [|teamID, operator, position|...]
% operators index:
%  1 for =  operator
%  2 for >  operator
%  3 for >= operator
%  4 for <  operator
%  5 for <= operator
positionConstraints=[|13,4,2|3,5,2|];